Maximize
  0 x0 - 12 x1 + 0 x2 + 0 x3 - 42 x4 + 0 x5 + 0 x6 + 0 x7 + 0 x8 + 0 x9
   + 0 x10 + 34 x11 + 0 x12 - 20 x13 + 0 x14 + 0 x15 + 0 x16 + 0 x17
   + 0 x18 - 11 x19 + 0 x20 + 0 x21 + 0 x22 + 0 x23 - 15 x24 - 31 x25
   + 0 x26 + 0 x27 + 0 x28 + 0 x29 + 0 x30 - 36 x31 + 3 x32 + 11 x33
   + 0 x34 + 0 x35 - 34 x36 + 0 x37 + 0 x38 + 0 x39 + 0 x40 + 0 x41 + 0 x42
   + 0 x43 - 17 x44 + 0 x45 + 0 x46 + 42 x47 + 0 x48 - 45 x49 + [
   92 x0 * x1 + 46 x0 * x5 + 68 x0 * x6 + 90 x0 * x7 + 94 x0 * x10
   - 94 x0 * x11 - 16 x0 * x17 + 58 x0 * x18 - 10 x0 * x26 - 12 x0 * x28
   + 84 x0 * x36 + 18 x0 * x37 - 40 x0 * x38 + 44 x0 * x39 - 32 x1 ^2
   + 78 x1 * x3 + 32 x1 * x4 + 60 x1 * x9 - 8 x1 * x12 + 68 x1 * x13
   + 58 x1 * x19 + 44 x1 * x20 - 48 x1 * x30 + 80 x1 * x36 + 32 x1 * x37
   + 80 x1 * x42 - 32 x1 * x46 - 66 x1 * x48 - 80 x2 * x6 - 2 x2 * x9
   - 18 x2 * x11 + 20 x2 * x12 + 8 x2 * x13 - 12 x2 * x22 - 24 x2 * x30
   + 72 x2 * x35 - 68 x2 * x38 + 96 x2 * x39 - 86 x2 * x41 + 70 x2 * x44
   + 82 x2 * x45 + 84 x3 * x10 + 22 x3 * x12 - 44 x3 * x16 - 74 x3 * x17
   - 72 x3 * x23 - 86 x3 * x26 + 60 x3 * x27 - 4 x3 * x29 + 26 x3 * x30
   - 8 x3 * x31 - 32 x3 * x33 + 78 x3 * x38 + 22 x3 * x43 + 66 x3 * x44
   - 58 x3 * x48 - 96 x3 * x49 + 15 x4 ^2 + 38 x4 * x6 - 56 x4 * x7
   + 86 x4 * x11 - 84 x4 * x13 - 28 x4 * x14 - 54 x4 * x15 + 96 x4 * x16
   + 58 x4 * x20 - 8 x4 * x21 + 6 x4 * x23 + 68 x4 * x24 - 72 x4 * x28
   - 40 x4 * x29 - 42 x4 * x30 - 70 x4 * x32 + 60 x4 * x34 - 14 x4 * x35
   - 58 x4 * x36 - 48 x4 * x37 - 6 x4 * x39 - 88 x4 * x41 - 76 x4 * x48
   + 74 x5 * x13 + 64 x5 * x17 - 18 x5 * x18 + 34 x5 * x19 - 62 x5 * x22
   - 70 x5 * x23 - 44 x5 * x26 + 12 x5 * x30 + 36 x5 * x31 + 92 x5 * x45
   - 98 x6 * x10 - 4 x6 * x11 + 4 x6 * x12 + 56 x6 * x14 - 8 x6 * x15
   + 42 x6 * x16 - 4 x6 * x23 + 10 x6 * x28 + 36 x6 * x31 - 38 x6 * x32
   + 10 x6 * x36 - 90 x6 * x37 + 98 x6 * x38 - 82 x6 * x39 + 34 x6 * x40
   - 6 x6 * x46 - 60 x7 * x8 - 16 x7 * x13 - 6 x7 * x16 + 78 x7 * x20
   + 90 x7 * x21 - 16 x7 * x23 + 40 x7 * x27 + 86 x7 * x28 + 36 x7 * x29
   + 4 x7 * x46 - 46 x7 * x47 + 14 x8 * x16 + 28 x8 * x19 - 16 x8 * x23
   + 86 x8 * x25 - 44 x8 * x27 + 46 x8 * x29 + 72 x8 * x37 + 54 x8 * x39
   + 22 x8 * x42 + 42 x8 * x47 - 70 x8 * x49 + 30 x9 * x10 + 44 x9 * x11
   - 10 x9 * x13 + 8 x9 * x17 - 50 x9 * x18 - 32 x9 * x23 + 66 x9 * x29
   + 42 x9 * x31 + 38 x9 * x35 + 52 x9 * x41 + 56 x9 * x46 - 36 x9 * x49
   + 34 x10 ^2 + 34 x10 * x13 + 64 x10 * x19 - 66 x10 * x21 - 58 x10 * x23
   - 88 x10 * x26 - 38 x10 * x28 - 70 x10 * x29 - 34 x10 * x34
   + 28 x10 * x35 + 28 x10 * x44 + 6 x10 * x48 + 68 x11 * x14
   - 86 x11 * x15 - 84 x11 * x17 + 24 x11 * x21 - 32 x11 * x27
   + 14 x11 * x33 - 52 x11 * x36 - 84 x11 * x38 - 10 x12 * x13
   - 26 x12 * x16 + 36 x12 * x18 - 90 x12 * x22 + 76 x12 * x23
   - 70 x12 * x26 - 42 x12 * x28 + 22 x12 * x29 + 38 x12 * x30
   - 88 x12 * x36 + 96 x12 * x37 + 18 x12 * x38 + 26 x12 * x39
   - 56 x12 * x40 - 16 x12 * x42 - 78 x12 * x46 - 76 x12 * x47
   + 16 x13 * x17 - 76 x13 * x22 - 34 x13 * x29 - 66 x13 * x33
   + 18 x13 * x34 + 20 x13 * x40 + 20 x13 * x43 - 58 x13 * x46
   - 94 x13 * x47 - 36 x13 * x48 + 5 x14 ^2 + 6 x14 * x17 - 64 x14 * x18
   - 66 x14 * x19 - 98 x14 * x21 - 6 x14 * x24 + 22 x14 * x25
   - 12 x14 * x33 + 80 x14 * x36 - 46 x14 * x41 - 48 x14 * x45
   + 2 x14 * x49 - 38 x15 * x25 - 70 x15 * x31 - 56 x15 * x34
   - 52 x15 * x35 - 86 x15 * x37 - 52 x15 * x40 + 88 x15 * x43
   + 48 x16 * x26 - 42 x16 * x33 - 62 x16 * x35 + 38 x16 * x39
   + 82 x16 * x40 + 94 x17 * x23 - 42 x17 * x25 - 30 x17 * x29
   - 76 x17 * x30 + 96 x17 * x37 - 36 x17 * x41 - 40 x18 ^2 + 30 x18 * x26
   - 92 x18 * x30 - 80 x18 * x37 + 88 x18 * x40 + 62 x18 * x42
   + 46 x18 * x44 + 38 x18 * x49 - 27 x19 ^2 - 24 x19 * x23 - 74 x19 * x36
   + 44 x19 * x42 + 6 x19 * x44 - 82 x19 * x49 + 32 x20 * x23
   + 28 x20 * x27 + 70 x20 * x30 + 82 x20 * x31 - 44 x20 * x32
   + 12 x20 * x35 - 82 x20 * x43 + 34 x20 * x44 - 68 x20 * x45
   - 28 x21 * x22 + 88 x21 * x24 + 78 x21 * x25 - 66 x21 * x31
   + 36 x21 * x32 - 10 x21 * x36 - 82 x21 * x38 - 24 x21 * x40
   + 64 x21 * x45 - 76 x22 * x26 - 40 x22 * x27 - 46 x22 * x28
   - 88 x22 * x29 + 78 x22 * x38 - 42 x22 * x42 - 36 x22 * x43
   + 2 x22 * x47 + 2 x22 * x48 + 28 x22 * x49 + 76 x23 * x27 - 20 x23 * x32
   + 6 x23 * x34 + 2 x23 * x36 + 40 x23 * x37 + 56 x23 * x38 + 26 x23 * x41
   - 64 x23 * x42 - 98 x23 * x44 - 32 x24 * x28 - 84 x24 * x30
   - 40 x24 * x44 + 26 x24 * x48 + 72 x25 * x28 - 78 x25 * x29
   - 4 x25 * x30 - 52 x25 * x35 + 78 x25 * x39 - 16 x25 * x41
   - 24 x25 * x42 + 54 x25 * x48 + 74 x25 * x49 - 70 x26 * x30
   + 52 x26 * x32 - 34 x26 * x37 + 2 x26 * x41 + 30 x26 * x43
   - 66 x26 * x48 + 26 x27 * x28 - 88 x27 * x29 - 8 x27 * x32
   - 70 x27 * x33 + 98 x27 * x36 + 16 x27 * x38 + 44 x27 * x40
   + 16 x27 * x46 + 58 x28 * x31 - 74 x28 * x33 - 20 x28 * x34
   - 12 x28 * x42 + 72 x29 * x42 + 4 x29 * x43 + 84 x29 * x45
   + 26 x29 * x49 + 36 x30 ^2 + 36 x30 * x35 - 50 x30 * x37 + 68 x30 * x41
   + 84 x30 * x45 + 40 x30 * x46 - 12 x31 * x33 + 94 x31 * x38
   - 56 x31 * x39 - 94 x31 * x40 - 40 x31 * x43 + 6 x31 * x44 - 4 x31 * x45
   - 92 x31 * x49 + 92 x32 * x34 - 4 x32 * x35 - 90 x32 * x37
   + 18 x32 * x40 + 14 x32 * x46 + 34 x33 * x36 + 26 x33 * x37
   + 28 x33 * x43 - 88 x33 * x47 - 58 x33 * x49 - 28 x34 * x40
   - 48 x34 * x44 + 64 x34 * x46 + 2 x34 * x49 + 20 x35 * x36
   + 12 x35 * x41 + 68 x35 * x42 + 16 x35 * x43 + 14 x35 * x49 + 41 x36 ^2
   + 56 x36 * x37 + 54 x36 * x44 + 82 x36 * x48 - 78 x37 * x38
   - 12 x37 * x39 - 46 x37 * x41 + 86 x37 * x45 + 76 x37 * x48
   + 42 x38 * x42 - 60 x38 * x43 - 32 x38 * x45 + 20 x38 * x46
   + 4 x38 * x49 + 96 x39 * x43 - 80 x39 * x46 - 46 x39 * x48
   - 34 x40 * x41 - 2 x40 * x47 + 34 x40 * x48 + 52 x40 * x49 - 9 x41 ^2
   - 30 x42 * x49 + 7 x43 ^2 - 68 x43 * x47 - 78 x43 * x48 + 19 x44 ^2
   + 48 x44 * x47 + 62 x45 * x49 - 76 x47 * x48 + 96 x48 * x49 ] / 2 
Subject To
Bounds
 x0 <= 1
 x1 <= 1
 x2 <= 1
 x3 <= 1
 x4 <= 1
 x5 <= 1
 x6 <= 1
 x7 <= 1
 x8 <= 1
 x9 <= 1
 x10 <= 1
 x11 <= 1
 x12 <= 1
 x13 <= 1
 x14 <= 1
 x15 <= 1
 x16 <= 1
 x17 <= 1
 x18 <= 1
 x19 <= 1
 x20 <= 1
 x21 <= 1
 x22 <= 1
 x23 <= 1
 x24 <= 1
 x25 <= 1
 x26 <= 1
 x27 <= 1
 x28 <= 1
 x29 <= 1
 x30 <= 1
 x31 <= 1
 x32 <= 1
 x33 <= 1
 x34 <= 1
 x35 <= 1
 x36 <= 1
 x37 <= 1
 x38 <= 1
 x39 <= 1
 x40 <= 1
 x41 <= 1
 x42 <= 1
 x43 <= 1
 x44 <= 1
 x45 <= 1
 x46 <= 1
 x47 <= 1
 x48 <= 1
 x49 <= 1
End
